(set-info :source |printed by MathSAT|)
(declare-fun |!{$(in_main#0)<k>}| () Int)
(declare-fun |!{$(in_main#0)<k>}.next| () Int)
(declare-fun |!{$(in_main#0)<k#1>}| () Int)
(declare-fun |!{$(in_main#0)<k#1>}.next| () Int)
(declare-fun |!{%memaddr}| () Int)
(declare-fun |!{%memaddr}.next| () Int)
(declare-fun |!{$(in_main#0)<N>}| () Int)
(declare-fun |!{$(in_main#0)<N>}.next| () Int)
(declare-fun |!{%mem.0}| () (Array Int Int))
(declare-fun |!{%mem.0}.next| () (Array Int Int))
(declare-fun |!{$(in_main#0)<&array1>}| () Int)
(declare-fun |!{$(in_main#0)<&array1>}.next| () Int)
(declare-fun |!{$(in_main#0)<&array2>}| () Int)
(declare-fun |!{$(in_main#0)<&array2>}.next| () Int)
(declare-fun |!{$(in_main#0)<$(in___VERIFIER_nondet_int#2)<h#<__VERIFIER_nondet_int.return>>>}| () Int)
(declare-fun |!{$(in_main#0)<$(in___VERIFIER_nondet_int#4)<h#<__VERIFIER_nondet_int.return>>>}| () Int)
(declare-fun |!{$(in_main#0)<$(in___VERIFIER_nondet_int#5)<h#<__VERIFIER_nondet_int.return>>>}| () Int)
(declare-fun |!{$(in_main#0)<$(in_rec_array_compare#6)<$temp.1>>}| () Int)
(declare-fun |!{$(in_main#0)<$(in_rec_array_compare#6)<$tmp>>}| () Int)
(declare-fun |!{$(in_main#0)<$(in_rec_array_compare#6)<$(in_rec_array_compare#0)<$temp.1>>>}| () Int)
(declare-fun |!{$(in_main#0)<$(in_rec_array_compare#6)<$(in_rec_array_compare#0)<$tmp>>>}| () Int)
(declare-fun !pc () Int)
(declare-fun !pc.next () Int)
(declare-fun |%{$(in_main#0)<k#1>}#1| () Int)
(declare-fun rec_array_compare<0> (Int Int Int Int) Int)
(declare-fun |%{$(in_main#0)<$(in_rec_array_compare#6)<$(in_rec_array_compare#0)<$temp.1>>>}#3| () Int)
(declare-fun |%{$(in_main#0)<$(in_rec_array_compare#6)<$(in_rec_array_compare#0)<$tmp>>>}#3| () Int)
(declare-fun |%{$(in_main#0)<$(in_rec_array_compare#6)<$(in_rec_array_compare#0)<rec_array_compare.return>>>}#3| () Int)
(declare-fun |%{$(in_main#0)<$(in_rec_array_compare#6)<$temp.1>>}#3| () Int)
(declare-fun |%{$(in_main#0)<$(in_rec_array_compare#6)<$tmp>>}#3| () Int)
(declare-fun |%{$(in_main#0)<$(in_rec_array_compare#6)<rec_array_compare.return>>}#3| () Int)
(define-fun .def_64 () Int (! !pc :next !pc.next))
(define-fun .def_67 () Bool (! (= .def_64 2) :init true))
(define-fun .def_288 () Bool (= .def_64 60))
(define-fun .def_159 () Bool (= !pc.next 0))
(define-fun .def_294 () Bool (and .def_159 .def_288))
(define-fun .def_255 () Bool (= |%{$(in_main#0)<$(in_rec_array_compare#6)<rec_array_compare.return>>}#3| 1))
(define-fun .def_261 () Bool (not .def_255))
(define-fun .def_10 () Int (! |!{$(in_main#0)<k#1>}| :next |!{$(in_main#0)<k#1>}.next|))
(define-fun .def_118 () Bool (= .def_10 |!{$(in_main#0)<k#1>}.next|))
(define-fun .def_8 () Int (! |!{$(in_main#0)<k>}| :next |!{$(in_main#0)<k>}.next|))
(define-fun .def_116 () Bool (= .def_8 |!{$(in_main#0)<k>}.next|))
(define-fun .def_142 () Bool (and .def_116 .def_118))
(define-fun .def_12 () Int (! |!{%memaddr}| :next |!{%memaddr}.next|))
(define-fun .def_120 () Bool (= .def_12 |!{%memaddr}.next|))
(define-fun .def_143 () Bool (and .def_120 .def_142))
(define-fun .def_16 () (Array Int Int) (! |!{%mem.0}| :next |!{%mem.0}.next|))
(define-fun .def_90 () Bool (= .def_16 |!{%mem.0}.next|))
(define-fun .def_144 () Bool (and .def_90 .def_143))
(define-fun .def_14 () Int (! |!{$(in_main#0)<N>}| :next |!{$(in_main#0)<N>}.next|))
(define-fun .def_123 () Bool (= .def_14 |!{$(in_main#0)<N>}.next|))
(define-fun .def_145 () Bool (and .def_123 .def_144))
(define-fun .def_18 () Int (! |!{$(in_main#0)<&array1>}| :next |!{$(in_main#0)<&array1>}.next|))
(define-fun .def_125 () Bool (= .def_18 |!{$(in_main#0)<&array1>}.next|))
(define-fun .def_146 () Bool (and .def_125 .def_145))
(define-fun .def_20 () Int (! |!{$(in_main#0)<&array2>}| :next |!{$(in_main#0)<&array2>}.next|))
(define-fun .def_127 () Bool (= .def_20 |!{$(in_main#0)<&array2>}.next|))
(define-fun .def_147 () Bool (and .def_127 .def_146))
(define-fun .def_285 () Bool (and .def_147 .def_261))
(define-fun .def_234 () Bool (= |!{$(in_main#0)<$(in_rec_array_compare#6)<$temp.1>>}| |%{$(in_main#0)<$(in_rec_array_compare#6)<$temp.1>>}#3|))
(define-fun .def_173 () Bool (<= .def_14 0))
(define-fun .def_253 () Bool (and .def_173 .def_234))
(define-fun .def_240 () Bool (= |!{$(in_main#0)<$(in_rec_array_compare#6)<$tmp>>}| |%{$(in_main#0)<$(in_rec_array_compare#6)<$tmp>>}#3|))
(define-fun .def_254 () Bool (and .def_240 .def_253))
(define-fun .def_256 () Bool (and .def_254 .def_255))
(define-fun .def_246 () Bool (= |%{$(in_main#0)<$(in_rec_array_compare#6)<$(in_rec_array_compare#0)<rec_array_compare.return>>>}#3| |%{$(in_main#0)<$(in_rec_array_compare#6)<rec_array_compare.return>>}#3|))
(define-fun .def_241 () Bool (= |%{$(in_main#0)<$(in_rec_array_compare#6)<$(in_rec_array_compare#0)<rec_array_compare.return>>>}#3| |%{$(in_main#0)<$(in_rec_array_compare#6)<$tmp>>}#3|))
(define-fun .def_235 () Bool (= |%{$(in_main#0)<$(in_rec_array_compare#6)<$(in_rec_array_compare#0)<rec_array_compare.return>>>}#3| |%{$(in_main#0)<$(in_rec_array_compare#6)<$temp.1>>}#3|))
(define-fun .def_224 () Bool (= |%{$(in_main#0)<$(in_rec_array_compare#6)<$(in_rec_array_compare#0)<rec_array_compare.return>>>}#3| 1))
(define-fun .def_198 () Bool (= |!{$(in_main#0)<$(in_rec_array_compare#6)<$(in_rec_array_compare#0)<$temp.1>>>}| |%{$(in_main#0)<$(in_rec_array_compare#6)<$(in_rec_array_compare#0)<$temp.1>>>}#3|))
(define-fun .def_179 () Bool (<= .def_14 1))
(define-fun .def_222 () Bool (and .def_179 .def_198))
(define-fun .def_204 () Bool (= |!{$(in_main#0)<$(in_rec_array_compare#6)<$(in_rec_array_compare#0)<$tmp>>>}| |%{$(in_main#0)<$(in_rec_array_compare#6)<$(in_rec_array_compare#0)<$tmp>>>}#3|))
(define-fun .def_223 () Bool (and .def_204 .def_222))
(define-fun .def_225 () Bool (and .def_223 .def_224))
(define-fun .def_187 () Int (rec_array_compare<0> .def_18 .def_20 2 .def_14))
(define-fun .def_211 () Bool (= .def_187 |%{$(in_main#0)<$(in_rec_array_compare#6)<$(in_rec_array_compare#0)<rec_array_compare.return>>>}#3|))
(define-fun .def_205 () Bool (= .def_187 |%{$(in_main#0)<$(in_rec_array_compare#6)<$(in_rec_array_compare#0)<$tmp>>>}#3|))
(define-fun .def_199 () Bool (= .def_187 |%{$(in_main#0)<$(in_rec_array_compare#6)<$(in_rec_array_compare#0)<$temp.1>>>}#3|))
(define-fun .def_183 () Int (+ .def_20 1))
(define-fun .def_184 () Int (select .def_16 .def_183))
(define-fun .def_181 () Int (+ .def_18 1))
(define-fun .def_182 () Int (select .def_16 .def_181))
(define-fun .def_185 () Bool (= .def_182 .def_184))
(define-fun .def_201 () Bool (and .def_185 .def_199))
(define-fun .def_207 () Bool (and .def_201 .def_205))
(define-fun .def_213 () Bool (and .def_207 .def_211))
(define-fun .def_210 () Bool (= |%{$(in_main#0)<$(in_rec_array_compare#6)<$(in_rec_array_compare#0)<rec_array_compare.return>>>}#3| 0))
(define-fun .def_186 () Bool (not .def_185))
(define-fun .def_200 () Bool (and .def_186 .def_198))
(define-fun .def_206 () Bool (and .def_200 .def_204))
(define-fun .def_212 () Bool (and .def_206 .def_210))
(define-fun .def_214 () Bool (or .def_212 .def_213))
(define-fun .def_180 () Bool (not .def_179))
(define-fun .def_215 () Bool (and .def_180 .def_214))
(define-fun .def_226 () Bool (or .def_215 .def_225))
(define-fun .def_176 () Int (select .def_16 .def_20))
(define-fun .def_175 () Int (select .def_16 .def_18))
(define-fun .def_177 () Bool (= .def_175 .def_176))
(define-fun .def_227 () Bool (and .def_177 .def_226))
(define-fun .def_237 () Bool (and .def_227 .def_235))
(define-fun .def_243 () Bool (and .def_237 .def_241))
(define-fun .def_248 () Bool (and .def_243 .def_246))
(define-fun .def_245 () Bool (= |%{$(in_main#0)<$(in_rec_array_compare#6)<rec_array_compare.return>>}#3| 0))
(define-fun .def_178 () Bool (not .def_177))
(define-fun .def_236 () Bool (and .def_178 .def_234))
(define-fun .def_242 () Bool (and .def_236 .def_240))
(define-fun .def_247 () Bool (and .def_242 .def_245))
(define-fun .def_249 () Bool (or .def_247 .def_248))
(define-fun .def_174 () Bool (not .def_173))
(define-fun .def_250 () Bool (and .def_174 .def_249))
(define-fun .def_257 () Bool (or .def_250 .def_256))
(define-fun .def_286 () Bool (and .def_257 .def_285))
(define-fun .def_166 () Bool (<= .def_14 .def_8))
(define-fun .def_287 () Bool (and .def_166 .def_286))
(define-fun .def_295 () Bool (and .def_287 .def_294))
(define-fun .def_155 () Bool (= !pc.next 174))
(define-fun .def_291 () Bool (and .def_155 .def_288))
(define-fun .def_275 () Bool (= |!{$(in_main#0)<k#1>}.next| 0))
(define-fun .def_276 () Bool (and .def_116 .def_275))
(define-fun .def_277 () Bool (and .def_120 .def_276))
(define-fun .def_278 () Bool (and .def_90 .def_277))
(define-fun .def_279 () Bool (and .def_123 .def_278))
(define-fun .def_280 () Bool (and .def_125 .def_279))
(define-fun .def_281 () Bool (and .def_127 .def_280))
(define-fun .def_282 () Bool (and .def_255 .def_281))
(define-fun .def_283 () Bool (and .def_257 .def_282))
(define-fun .def_284 () Bool (and .def_166 .def_283))
(define-fun .def_292 () Bool (and .def_284 .def_291))
(define-fun .def_100 () Bool (= !pc.next 60))
(define-fun .def_289 () Bool (and .def_100 .def_288))
(define-fun .def_170 () Int (+ .def_8 .def_20))
(define-fun .def_168 () Int (+ .def_8 .def_18))
(define-fun .def_169 () (Array Int Int) (store .def_16 .def_168 |!{$(in_main#0)<$(in___VERIFIER_nondet_int#4)<h#<__VERIFIER_nondet_int.return>>>}|))
(define-fun .def_171 () (Array Int Int) (store .def_169 .def_170 |!{$(in_main#0)<$(in___VERIFIER_nondet_int#5)<h#<__VERIFIER_nondet_int.return>>>}|))
(define-fun .def_269 () Bool (= |!{%mem.0}.next| .def_171))
(define-fun .def_264 () Int (* (- 1) |!{$(in_main#0)<k>}.next|))
(define-fun .def_265 () Int (+ .def_8 .def_264))
(define-fun .def_266 () Bool (= .def_265 (- 1)))
(define-fun .def_267 () Bool (and .def_118 .def_266))
(define-fun .def_268 () Bool (and .def_120 .def_267))
(define-fun .def_270 () Bool (and .def_268 .def_269))
(define-fun .def_271 () Bool (and .def_123 .def_270))
(define-fun .def_272 () Bool (and .def_125 .def_271))
(define-fun .def_273 () Bool (and .def_127 .def_272))
(define-fun .def_167 () Bool (not .def_166))
(define-fun .def_274 () Bool (and .def_167 .def_273))
(define-fun .def_290 () Bool (and .def_274 .def_289))
(define-fun .def_293 () Bool (or .def_290 .def_292))
(define-fun .def_296 () Bool (or .def_293 .def_295))
(define-fun .def_150 () Bool (= .def_64 174))
(define-fun .def_160 () Bool (and .def_150 .def_159))
(define-fun .def_103 () Bool (<= .def_14 .def_10))
(define-fun .def_148 () Bool (and .def_103 .def_147))
(define-fun .def_161 () Bool (and .def_148 .def_160))
(define-fun .def_156 () Bool (and .def_150 .def_155))
(define-fun .def_131 () Int (* (- 1) |!{$(in_main#0)<k#1>}.next|))
(define-fun .def_132 () Int (+ .def_10 .def_131))
(define-fun .def_133 () Bool (= .def_132 (- 1)))
(define-fun .def_134 () Bool (and .def_116 .def_133))
(define-fun .def_135 () Bool (and .def_120 .def_134))
(define-fun .def_136 () Bool (and .def_90 .def_135))
(define-fun .def_137 () Bool (and .def_123 .def_136))
(define-fun .def_138 () Bool (and .def_125 .def_137))
(define-fun .def_139 () Bool (and .def_127 .def_138))
(define-fun .def_107 () Int (+ .def_10 .def_20))
(define-fun .def_108 () Int (select .def_16 .def_107))
(define-fun .def_105 () Int (+ .def_10 .def_18))
(define-fun .def_106 () Int (select .def_16 .def_105))
(define-fun .def_109 () Bool (= .def_106 .def_108))
(define-fun .def_110 () Int (ite .def_109 1 0))
(define-fun .def_111 () Bool (= .def_110 0))
(define-fun .def_112 () Bool (not .def_111))
(define-fun .def_140 () Bool (and .def_112 .def_139))
(define-fun .def_104 () Bool (not .def_103))
(define-fun .def_141 () Bool (and .def_104 .def_140))
(define-fun .def_157 () Bool (and .def_141 .def_156))
(define-fun .def_152 () Bool (= !pc.next 194))
(define-fun .def_153 () Bool (and .def_150 .def_152))
(define-fun .def_117 () Bool (and .def_111 .def_116))
(define-fun .def_119 () Bool (and .def_117 .def_118))
(define-fun .def_121 () Bool (and .def_119 .def_120))
(define-fun .def_122 () Bool (and .def_90 .def_121))
(define-fun .def_124 () Bool (and .def_122 .def_123))
(define-fun .def_126 () Bool (and .def_124 .def_125))
(define-fun .def_128 () Bool (and .def_126 .def_127))
(define-fun .def_129 () Bool (and .def_104 .def_128))
(define-fun .def_154 () Bool (and .def_129 .def_153))
(define-fun .def_158 () Bool (or .def_154 .def_157))
(define-fun .def_162 () Bool (or .def_158 .def_161))
(define-fun .def_101 () Bool (and .def_67 .def_100))
(define-fun .def_96 () Bool (= |!{$(in_main#0)<&array2>}.next| 2))
(define-fun .def_94 () Bool (= |!{$(in_main#0)<&array1>}.next| 1))
(define-fun .def_92 () Bool (= |!{$(in_main#0)<N>}.next| |!{$(in_main#0)<$(in___VERIFIER_nondet_int#2)<h#<__VERIFIER_nondet_int.return>>>}|))
(define-fun .def_88 () Bool (= |!{%memaddr}.next| 3))
(define-fun .def_86 () Bool (= |!{$(in_main#0)<k#1>}.next| |%{$(in_main#0)<k#1>}#1|))
(define-fun .def_85 () Bool (= |!{$(in_main#0)<k>}.next| 0))
(define-fun .def_87 () Bool (and .def_85 .def_86))
(define-fun .def_89 () Bool (and .def_87 .def_88))
(define-fun .def_91 () Bool (and .def_89 .def_90))
(define-fun .def_93 () Bool (and .def_91 .def_92))
(define-fun .def_95 () Bool (and .def_93 .def_94))
(define-fun .def_97 () Bool (and .def_95 .def_96))
(define-fun .def_80 () Bool (<= |!{$(in_main#0)<$(in___VERIFIER_nondet_int#2)<h#<__VERIFIER_nondet_int.return>>>}| 0))
(define-fun .def_81 () Bool (not .def_80))
(define-fun .def_82 () Int (ite .def_81 1 0))
(define-fun .def_83 () Bool (= .def_82 0))
(define-fun .def_84 () Bool (not .def_83))
(define-fun .def_98 () Bool (and .def_84 .def_97))
(define-fun .def_102 () Bool (and .def_98 .def_101))
(define-fun .def_163 () Bool (or .def_102 .def_162))
(define-fun .def_297 () Bool (! (or .def_163 .def_296) :trans true))
(define-fun .def_164 () Bool (= .def_64 194))
(define-fun .def_298 () Bool (! (not .def_164) :invar-property 0 :invar-property-name ||))
(assert true)
